c description: Graph pigeonhole principle formula on fast_gnp_random_graph(10,25,0.9)
c generator: CNFgen (0.9.0)
c copyright: (C) 2012-2020 Massimo Lauria <massimo.lauria@uniroma1.it>
c url: https://massimolauria.net/cnfgen
c
p cnf 220 878
1 2 3 4 5 6 7 8 9 10 11 12 13 14 15 16 17 18 19 0
20 21 22 23 24 25 26 27 28 29 30 31 32 33 34 35 36 37 38 39 40 41 42 0
43 44 45 46 47 48 49 50 51 52 53 54 55 56 57 58 59 60 61 62 63 64 65 0
66 67 68 69 70 71 72 73 74 75 76 77 78 79 80 81 82 83 84 85 86 87 88 0
89 90 91 92 93 94 95 96 97 98 99 100 101 102 103 104 105 106 107 108 109 110 0
111 112 113 114 115 116 117 118 119 120 121 122 123 124 125 126 127 128 129 130 131 132 0
133 134 135 136 137 138 139 140 141 142 143 144 145 146 147 148 149 150 151 152 153 154 0
155 156 157 158 159 160 161 162 163 164 165 166 167 168 169 170 171 172 173 174 175 176 0
177 178 179 180 181 182 183 184 185 186 187 188 189 190 191 192 193 194 195 196 197 198 0
199 200 201 202 203 204 205 206 207 208 209 210 211 212 213 214 215 216 217 218 219 220 0
-20 -43 0
-20 -66 0
-20 -89 0
-20 -111 0
-20 -133 0
-20 -155 0
-20 -177 0
-20 -199 0
-43 -66 0
-43 -89 0
-43 -111 0
-43 -133 0
-43 -155 0
-43 -177 0
-43 -199 0
-66 -89 0
-66 -111 0
-66 -133 0
-66 -155 0
-66 -177 0
-66 -199 0
-89 -111 0
-89 -133 0
-89 -155 0
-89 -177 0
-89 -199 0
-111 -133 0
-111 -155 0
-111 -177 0
-111 -199 0
-133 -155 0
-133 -177 0
-133 -199 0
-155 -177 0
-155 -199 0
-177 -199 0
-1 -21 0
-1 -44 0
-1 -67 0
-1 -90 0
-1 -112 0
-1 -134 0
-1 -156 0
-1 -178 0
-1 -200 0
-21 -44 0
-21 -67 0
-21 -90 0
-21 -112 0
-21 -134 0
-21 -156 0
-21 -178 0
-21 -200 0
-44 -67 0
-44 -90 0
-44 -112 0
-44 -134 0
-44 -156 0
-44 -178 0
-44 -200 0
-67 -90 0
-67 -112 0
-67 -134 0
-67 -156 0
-67 -178 0
-67 -200 0
-90 -112 0
-90 -134 0
-90 -156 0
-90 -178 0
-90 -200 0
-112 -134 0
-112 -156 0
-112 -178 0
-112 -200 0
-134 -156 0
-134 -178 0
-134 -200 0
-156 -178 0
-156 -200 0
-178 -200 0
-2 -22 0
-2 -45 0
-2 -68 0
-2 -113 0
-2 -135 0
-2 -157 0
-2 -179 0
-2 -201 0
-22 -45 0
-22 -68 0
-22 -113 0
-22 -135 0
-22 -157 0
-22 -179 0
-22 -201 0
-45 -68 0
-45 -113 0
-45 -135 0
-45 -157 0
-45 -179 0
-45 -201 0
-68 -113 0
-68 -135 0
-68 -157 0
-68 -179 0
-68 -201 0
-113 -135 0
-113 -157 0
-113 -179 0
-113 -201 0
-135 -157 0
-135 -179 0
-135 -201 0
-157 -179 0
-157 -201 0
-179 -201 0
-3 -23 0
-3 -46 0
-3 -69 0
-3 -91 0
-3 -136 0
-3 -158 0
-3 -180 0
-3 -202 0
-23 -46 0
-23 -69 0
-23 -91 0
-23 -136 0
-23 -158 0
-23 -180 0
-23 -202 0
-46 -69 0
-46 -91 0
-46 -136 0
-46 -158 0
-46 -180 0
-46 -202 0
-69 -91 0
-69 -136 0
-69 -158 0
-69 -180 0
-69 -202 0
-91 -136 0
-91 -158 0
-91 -180 0
-91 -202 0
-136 -158 0
-136 -180 0
-136 -202 0
-158 -180 0
-158 -202 0
-180 -202 0
-4 -24 0
-4 -47 0
-4 -70 0
-4 -92 0
-4 -114 0
-4 -137 0
-4 -159 0
-4 -181 0
-4 -203 0
-24 -47 0
-24 -70 0
-24 -92 0
-24 -114 0
-24 -137 0
-24 -159 0
-24 -181 0
-24 -203 0
-47 -70 0
-47 -92 0
-47 -114 0
-47 -137 0
-47 -159 0
-47 -181 0
-47 -203 0
-70 -92 0
-70 -114 0
-70 -137 0
-70 -159 0
-70 -181 0
-70 -203 0
-92 -114 0
-92 -137 0
-92 -159 0
-92 -181 0
-92 -203 0
-114 -137 0
-114 -159 0
-114 -181 0
-114 -203 0
-137 -159 0
-137 -181 0
-137 -203 0
-159 -181 0
-159 -203 0
-181 -203 0
-25 -71 0
-25 -93 0
-25 -115 0
-25 -138 0
-25 -160 0
-25 -204 0
-71 -93 0
-71 -115 0
-71 -138 0
-71 -160 0
-71 -204 0
-93 -115 0
-93 -138 0
-93 -160 0
-93 -204 0
-115 -138 0
-115 -160 0
-115 -204 0
-138 -160 0
-138 -204 0
-160 -204 0
-5 -26 0
-5 -48 0
-5 -72 0
-5 -94 0
-5 -116 0
-5 -139 0
-5 -161 0
-26 -48 0
-26 -72 0
-26 -94 0
-26 -116 0
-26 -139 0
-26 -161 0
-48 -72 0
-48 -94 0
-48 -116 0
-48 -139 0
-48 -161 0
-72 -94 0
-72 -116 0
-72 -139 0
-72 -161 0
-94 -116 0
-94 -139 0
-94 -161 0
-116 -139 0
-116 -161 0
-139 -161 0
-6 -49 0
-6 -95 0
-6 -117 0
-6 -140 0
-6 -162 0
-6 -182 0
-6 -205 0
-49 -95 0
-49 -117 0
-49 -140 0
-49 -162 0
-49 -182 0
-49 -205 0
-95 -117 0
-95 -140 0
-95 -162 0
-95 -182 0
-95 -205 0
-117 -140 0
-117 -162 0
-117 -182 0
-117 -205 0
-140 -162 0
-140 -182 0
-140 -205 0
-162 -182 0
-162 -205 0
-182 -205 0
-7 -27 0
-7 -50 0
-7 -73 0
-7 -96 0
-7 -118 0
-7 -163 0
-7 -183 0
-7 -206 0
-27 -50 0
-27 -73 0
-27 -96 0
-27 -118 0
-27 -163 0
-27 -183 0
-27 -206 0
-50 -73 0
-50 -96 0
-50 -118 0
-50 -163 0
-50 -183 0
-50 -206 0
-73 -96 0
-73 -118 0
-73 -163 0
-73 -183 0
-73 -206 0
-96 -118 0
-96 -163 0
-96 -183 0
-96 -206 0
-118 -163 0
-118 -183 0
-118 -206 0
-163 -183 0
-163 -206 0
-183 -206 0
-8 -28 0
-8 -51 0
-8 -74 0
-8 -97 0
-8 -119 0
-8 -141 0
-8 -164 0
-8 -184 0
-8 -207 0
-28 -51 0
-28 -74 0
-28 -97 0
-28 -119 0
-28 -141 0
-28 -164 0
-28 -184 0
-28 -207 0
-51 -74 0
-51 -97 0
-51 -119 0
-51 -141 0
-51 -164 0
-51 -184 0
-51 -207 0
-74 -97 0
-74 -119 0
-74 -141 0
-74 -164 0
-74 -184 0
-74 -207 0
-97 -119 0
-97 -141 0
-97 -164 0
-97 -184 0
-97 -207 0
-119 -141 0
-119 -164 0
-119 -184 0
-119 -207 0
-141 -164 0
-141 -184 0
-141 -207 0
-164 -184 0
-164 -207 0
-184 -207 0
-9 -29 0
-9 -52 0
-9 -75 0
-9 -120 0
-9 -142 0
-9 -165 0
-9 -185 0
-9 -208 0
-29 -52 0
-29 -75 0
-29 -120 0
-29 -142 0
-29 -165 0
-29 -185 0
-29 -208 0
-52 -75 0
-52 -120 0
-52 -142 0
-52 -165 0
-52 -185 0
-52 -208 0
-75 -120 0
-75 -142 0
-75 -165 0
-75 -185 0
-75 -208 0
-120 -142 0
-120 -165 0
-120 -185 0
-120 -208 0
-142 -165 0
-142 -185 0
-142 -208 0
-165 -185 0
-165 -208 0
-185 -208 0
-10 -30 0
-10 -53 0
-10 -76 0
-10 -98 0
-10 -121 0
-10 -143 0
-10 -166 0
-10 -209 0
-30 -53 0
-30 -76 0
-30 -98 0
-30 -121 0
-30 -143 0
-30 -166 0
-30 -209 0
-53 -76 0
-53 -98 0
-53 -121 0
-53 -143 0
-53 -166 0
-53 -209 0
-76 -98 0
-76 -121 0
-76 -143 0
-76 -166 0
-76 -209 0
-98 -121 0
-98 -143 0
-98 -166 0
-98 -209 0
-121 -143 0
-121 -166 0
-121 -209 0
-143 -166 0
-143 -209 0
-166 -209 0
-31 -54 0
-31 -77 0
-31 -99 0
-31 -122 0
-31 -144 0
-31 -167 0
-31 -186 0
-31 -210 0
-54 -77 0
-54 -99 0
-54 -122 0
-54 -144 0
-54 -167 0
-54 -186 0
-54 -210 0
-77 -99 0
-77 -122 0
-77 -144 0
-77 -167 0
-77 -186 0
-77 -210 0
-99 -122 0
-99 -144 0
-99 -167 0
-99 -186 0
-99 -210 0
-122 -144 0
-122 -167 0
-122 -186 0
-122 -210 0
-144 -167 0
-144 -186 0
-144 -210 0
-167 -186 0
-167 -210 0
-186 -210 0
-11 -55 0
-11 -78 0
-11 -100 0
-11 -123 0
-11 -145 0
-11 -168 0
-11 -187 0
-11 -211 0
-55 -78 0
-55 -100 0
-55 -123 0
-55 -145 0
-55 -168 0
-55 -187 0
-55 -211 0
-78 -100 0
-78 -123 0
-78 -145 0
-78 -168 0
-78 -187 0
-78 -211 0
-100 -123 0
-100 -145 0
-100 -168 0
-100 -187 0
-100 -211 0
-123 -145 0
-123 -168 0
-123 -187 0
-123 -211 0
-145 -168 0
-145 -187 0
-145 -211 0
-168 -187 0
-168 -211 0
-187 -211 0
-12 -32 0
-12 -56 0
-12 -79 0
-12 -101 0
-12 -124 0
-12 -146 0
-12 -169 0
-12 -188 0
-12 -212 0
-32 -56 0
-32 -79 0
-32 -101 0
-32 -124 0
-32 -146 0
-32 -169 0
-32 -188 0
-32 -212 0
-56 -79 0
-56 -101 0
-56 -124 0
-56 -146 0
-56 -169 0
-56 -188 0
-56 -212 0
-79 -101 0
-79 -124 0
-79 -146 0
-79 -169 0
-79 -188 0
-79 -212 0
-101 -124 0
-101 -146 0
-101 -169 0
-101 -188 0
-101 -212 0
-124 -146 0
-124 -169 0
-124 -188 0
-124 -212 0
-146 -169 0
-146 -188 0
-146 -212 0
-169 -188 0
-169 -212 0
-188 -212 0
-13 -33 0
-13 -57 0
-13 -80 0
-13 -102 0
-13 -125 0
-13 -170 0
-13 -189 0
-33 -57 0
-33 -80 0
-33 -102 0
-33 -125 0
-33 -170 0
-33 -189 0
-57 -80 0
-57 -102 0
-57 -125 0
-57 -170 0
-57 -189 0
-80 -102 0
-80 -125 0
-80 -170 0
-80 -189 0
-102 -125 0
-102 -170 0
-102 -189 0
-125 -170 0
-125 -189 0
-170 -189 0
-14 -34 0
-14 -58 0
-14 -81 0
-14 -103 0
-14 -126 0
-14 -147 0
-14 -190 0
-14 -213 0
-34 -58 0
-34 -81 0
-34 -103 0
-34 -126 0
-34 -147 0
-34 -190 0
-34 -213 0
-58 -81 0
-58 -103 0
-58 -126 0
-58 -147 0
-58 -190 0
-58 -213 0
-81 -103 0
-81 -126 0
-81 -147 0
-81 -190 0
-81 -213 0
-103 -126 0
-103 -147 0
-103 -190 0
-103 -213 0
-126 -147 0
-126 -190 0
-126 -213 0
-147 -190 0
-147 -213 0
-190 -213 0
-15 -35 0
-15 -59 0
-15 -82 0
-15 -104 0
-15 -127 0
-15 -148 0
-15 -171 0
-15 -191 0
-15 -214 0
-35 -59 0
-35 -82 0
-35 -104 0
-35 -127 0
-35 -148 0
-35 -171 0
-35 -191 0
-35 -214 0
-59 -82 0
-59 -104 0
-59 -127 0
-59 -148 0
-59 -171 0
-59 -191 0
-59 -214 0
-82 -104 0
-82 -127 0
-82 -148 0
-82 -171 0
-82 -191 0
-82 -214 0
-104 -127 0
-104 -148 0
-104 -171 0
-104 -191 0
-104 -214 0
-127 -148 0
-127 -171 0
-127 -191 0
-127 -214 0
-148 -171 0
-148 -191 0
-148 -214 0
-171 -191 0
-171 -214 0
-191 -214 0
-36 -60 0
-36 -105 0
-36 -128 0
-36 -149 0
-36 -192 0
-36 -215 0
-60 -105 0
-60 -128 0
-60 -149 0
-60 -192 0
-60 -215 0
-105 -128 0
-105 -149 0
-105 -192 0
-105 -215 0
-128 -149 0
-128 -192 0
-128 -215 0
-149 -192 0
-149 -215 0
-192 -215 0
-37 -61 0
-37 -83 0
-37 -106 0
-37 -129 0
-37 -172 0
-37 -193 0
-37 -216 0
-61 -83 0
-61 -106 0
-61 -129 0
-61 -172 0
-61 -193 0
-61 -216 0
-83 -106 0
-83 -129 0
-83 -172 0
-83 -193 0
-83 -216 0
-106 -129 0
-106 -172 0
-106 -193 0
-106 -216 0
-129 -172 0
-129 -193 0
-129 -216 0
-172 -193 0
-172 -216 0
-193 -216 0
-16 -38 0
-16 -62 0
-16 -84 0
-16 -107 0
-16 -130 0
-16 -150 0
-16 -173 0
-16 -194 0
-38 -62 0
-38 -84 0
-38 -107 0
-38 -130 0
-38 -150 0
-38 -173 0
-38 -194 0
-62 -84 0
-62 -107 0
-62 -130 0
-62 -150 0
-62 -173 0
-62 -194 0
-84 -107 0
-84 -130 0
-84 -150 0
-84 -173 0
-84 -194 0
-107 -130 0
-107 -150 0
-107 -173 0
-107 -194 0
-130 -150 0
-130 -173 0
-130 -194 0
-150 -173 0
-150 -194 0
-173 -194 0
-39 -63 0
-39 -85 0
-39 -108 0
-39 -131 0
-39 -151 0
-39 -174 0
-39 -195 0
-39 -217 0
-63 -85 0
-63 -108 0
-63 -131 0
-63 -151 0
-63 -174 0
-63 -195 0
-63 -217 0
-85 -108 0
-85 -131 0
-85 -151 0
-85 -174 0
-85 -195 0
-85 -217 0
-108 -131 0
-108 -151 0
-108 -174 0
-108 -195 0
-108 -217 0
-131 -151 0
-131 -174 0
-131 -195 0
-131 -217 0
-151 -174 0
-151 -195 0
-151 -217 0
-174 -195 0
-174 -217 0
-195 -217 0
-17 -40 0
-17 -64 0
-17 -86 0
-17 -109 0
-17 -152 0
-17 -175 0
-17 -196 0
-17 -218 0
-40 -64 0
-40 -86 0
-40 -109 0
-40 -152 0
-40 -175 0
-40 -196 0
-40 -218 0
-64 -86 0
-64 -109 0
-64 -152 0
-64 -175 0
-64 -196 0
-64 -218 0
-86 -109 0
-86 -152 0
-86 -175 0
-86 -196 0
-86 -218 0
-109 -152 0
-109 -175 0
-109 -196 0
-109 -218 0
-152 -175 0
-152 -196 0
-152 -218 0
-175 -196 0
-175 -218 0
-196 -218 0
-18 -41 0
-18 -65 0
-18 -87 0
-18 -110 0
-18 -132 0
-18 -153 0
-18 -197 0
-18 -219 0
-41 -65 0
-41 -87 0
-41 -110 0
-41 -132 0
-41 -153 0
-41 -197 0
-41 -219 0
-65 -87 0
-65 -110 0
-65 -132 0
-65 -153 0
-65 -197 0
-65 -219 0
-87 -110 0
-87 -132 0
-87 -153 0
-87 -197 0
-87 -219 0
-110 -132 0
-110 -153 0
-110 -197 0
-110 -219 0
-132 -153 0
-132 -197 0
-132 -219 0
-153 -197 0
-153 -219 0
-197 -219 0
-19 -42 0
-19 -88 0
-19 -154 0
-19 -176 0
-19 -198 0
-19 -220 0
-42 -88 0
-42 -154 0
-42 -176 0
-42 -198 0
-42 -220 0
-88 -154 0
-88 -176 0
-88 -198 0
-88 -220 0
-154 -176 0
-154 -198 0
-154 -220 0
-176 -198 0
-176 -220 0
-198 -220 0